NAME: test1950
TYPE: TSP
DIMENSION: 11
EDGE_WEIGHT_TYPE: EUC_2D
NODE_COORD_SECTION
1 6.723834209941026 42.23797813310814
2 77.48453382974074 93.63577105586054
3 47.53507724268437 49.05561682520179
4 6.333343164275629 71.10964662426461
5 86.46809412592165 22.732272911287588
6 31.317916185063165 7.267508832383607
7 68.05308964590711 15.674002026075318
8 9.15157736215615 20.387566509046206
9 70.25403775410433 86.05536904893262
10 54.37958614251532 92.13869592789743
11 62.2334607950901 57.77414730384549
EOF
